data;


param d:= 100;
param r:=5;
param p:=0.780000;
param M:=1000;
param U:=
         1         1        6.470679e-02
         2         1       -4.547802e-01
         3         1       -5.033997e-01
         4         1        1.043543e+00
         5         1        4.138004e+00
         6         1       -1.187692e+00
         7         1       -4.724726e-01
         8         1       -1.621133e-01
         9         1       -2.628051e-02
        10         1        6.817211e-01
        11         1       -1.406047e+00
        12         1       -4.144779e-01
        13         1       -2.170777e-02
        14         1       -8.615637e-01
        15         1       -1.696019e-01
        16         1       -9.610553e-01
        17         1        3.434399e-01
        18         1       -1.100142e+00
        19         1        1.309510e+00
        20         1        1.308727e+00
        21         1       -5.176928e-01
        22         1        9.639566e-01
        23         1        5.322836e-01
        24         1       -1.427023e+00
        25         1        3.948681e-01
        26         1        4.185551e-01
        27         1       -1.563446e-01
        28         1       -3.466538e-01
        29         1       -5.912250e-01
        30         1        1.042131e+00
        31         1       -3.809466e-01
        32         1       -2.279741e+00
        33         1        1.466790e+00
        34         1       -1.016865e+00
        35         1        2.318816e+00
        36         1        1.409488e+00
        37         1       -5.782191e-01
        38         1        4.879130e-01
        39         1        2.753737e-01
        40         1        3.582000e-01
        41         1        7.770979e-01
        42         1        4.798334e-01
        43         1       -4.271140e-02
        44         1        3.513429e-02
        45         1       -1.045053e+00
        46         1       -1.409467e+00
        47         1        2.150802e+00
        48         1       -1.864868e+00
        49         1       -9.981567e-01
        50         1       -3.831518e-01
        51         1        6.349766e-01
        52         1        5.798065e-02
        53         1       -2.293488e-01
        54         1       -3.671086e-01
        55         1        4.145575e-01
        56         1       -7.178820e-01
        57         1        4.702296e-02
        58         1        9.981057e-02
        59         1       -2.168877e-01
        60         1       -1.001084e+00
        61         1       -4.312876e-01
        62         1        1.773451e+00
        63         1        2.634412e+00
        64         1       -1.172731e+00
        65         1        1.575794e-01
        66         1        7.001655e-01
        67         1       -4.998769e-01
        68         1       -1.617410e-01
        69         1        2.444722e-01
        70         1       -5.372589e-01
        71         1        9.956482e-01
        72         1        1.011036e+00
        73         1        9.963395e-02
        74         1       -7.908617e-01
        75         1       -3.209271e+00
        76         1        1.311940e+00
        77         1       -7.362949e-01
        78         1       -1.347183e+00
        79         1       -8.204075e-01
        80         1       -6.912516e-01
        81         1       -7.979538e-01
        82         1       -8.273602e-01
        83         1        3.267809e-01
        84         1        8.669165e-01
        85         1       -1.617529e-01
        86         1        7.879772e-02
        87         1        7.642064e-01
        88         1       -3.177588e+00
        89         1        1.055725e+00
        90         1       -3.134284e-02
        91         1       -9.046490e-01
        92         1       -1.703487e+00
        93         1        2.233930e+00
        94         1       -1.181930e+00
        95         1       -2.106196e+00
        96         1       -9.727663e-01
        97         1       -1.818194e+00
        98         1       -7.857254e-02
        99         1        1.026847e+00
       100         1        6.803862e-01
         1         2        2.103941e+00
         2         2       -1.515358e-01
         3         2        2.239118e-01
         4         2       -1.288111e+00
         5         2       -6.011505e-01
         6         2        2.054245e+00
         7         2       -7.976932e-01
         8         2       -5.814251e-01
         9         2       -6.175194e-01
        10         2        2.553758e-01
        11         2       -1.647183e+00
        12         2        1.694866e+00
        13         2       -1.271551e+00
        14         2        9.440951e-01
        15         2        6.963150e-01
        16         2        1.037966e+00
        17         2       -5.580855e-02
        18         2       -4.057602e-01
        19         2        1.901277e-02
        20         2        1.441167e+00
        21         2        6.245118e-01
        22         2        1.790243e+00
        23         2        2.505075e-01
        24         2        4.929814e-01
        25         2        1.537606e+00
        26         2       -1.559377e+00
        27         2       -1.316012e-01
        28         2       -3.446991e-02
        29         2        1.170290e+00
        30         2       -1.505551e+00
        31         2       -2.742063e-01
        32         2        1.005228e+00
        33         2        8.591713e-01
        34         2       -7.845883e-02
        35         2        2.118780e-01
        36         2        2.451828e-01
        37         2        1.480823e+00
        38         2       -7.666507e-01
        39         2        3.741617e-01
        40         2       -1.764963e+00
        41         2        5.823342e-02
        42         2        1.396917e+00
        43         2        3.555439e-01
        44         2        5.889944e-01
        45         2       -1.888687e+00
        46         2       -1.613742e+00
        47         2       -8.509612e-01
        48         2       -5.213360e-01
        49         2        9.659872e-01
        50         2        3.035008e-01
        51         2       -1.567345e+00
        52         2       -1.661665e+00
        53         2       -1.361460e+00
        54         2        5.967244e-01
        55         2       -1.492723e+00
        56         2        4.147374e-01
        57         2        1.578407e-02
        58         2        7.783456e-01
        59         2       -5.170251e-01
        60         2       -8.753542e-01
        61         2       -2.011676e+00
        62         2        3.606239e-01
        63         2       -1.085306e+00
        64         2       -7.389451e-01
        65         2       -1.353788e+00
        66         2        8.147326e-01
        67         2       -1.118701e+00
        68         2       -3.239911e-01
        69         2        1.514266e+00
        70         2        3.384351e-01
        71         2       -5.032932e-01
        72         2       -1.467071e+00
        73         2        1.102393e+00
        74         2        8.623145e-01
        75         2        4.948546e-01
        76         2       -7.779495e-01
        77         2        3.477002e-01
        78         2       -1.301425e+00
        79         2       -2.185049e+00
        80         2       -6.789064e-01
        81         2       -1.484840e+00
        82         2       -3.782580e-01
        83         2        2.764745e-01
        84         2       -1.883595e-01
        85         2       -8.056048e-01
        86         2        3.286390e-01
        87         2        2.022815e+00
        88         2       -1.118185e+00
        89         2        8.079629e-01
        90         2        1.759978e-01
        91         2        1.458056e-02
        92         2       -1.359234e+00
        93         2        3.528605e-01
        94         2       -4.335041e-03
        95         2       -8.012579e-01
        96         2       -4.545517e-01
        97         2        1.840482e-01
        98         2       -1.291765e+00
        99         2        8.952162e-01
       100         2       -1.738512e-01
         1         3       -2.420060e-01
         2         3        2.745638e-01
         3         3        6.883123e-01
         4         3        1.441390e+00
         5         3       -4.509642e-01
         6         3        4.158958e-01
         7         3        3.095043e-01
         8         3        1.005601e+00
         9         3        8.996773e-01
        10         3        6.971596e-01
        11         3       -2.804759e+00
        12         3       -1.910450e+00
        13         3        1.166479e-01
        14         3       -9.421994e-01
        15         3       -9.735086e-01
        16         3       -1.027001e+00
        17         3       -5.821177e-01
        18         3       -8.835577e-01
        19         3       -7.490887e-01
        20         3       -8.089294e-01
        21         3       -7.938282e-01
        22         3        4.337699e-01
        23         3        7.256650e-01
        24         3       -9.775313e-01
        25         3        2.796790e-02
        26         3        1.295156e+00
        27         3       -7.557831e-01
        28         3        1.319114e-01
        29         3       -8.152063e-01
        30         3        8.891062e-02
        31         3       -5.440568e-01
        32         3       -2.782561e+00
        33         3       -1.061441e+00
        34         3       -5.832609e-01
        35         3        2.312525e-01
        36         3        1.420456e+00
        37         3        1.653976e+00
        38         3        1.478373e+00
        39         3        1.336981e+00
        40         3       -1.500395e+00
        41         3       -3.262668e-01
        42         3        5.054067e-01
        43         3       -2.247658e-01
        44         3        1.703538e+00
        45         3        5.567745e-01
        46         3       -1.320643e+00
        47         3       -8.572421e-01
        48         3       -6.509535e-02
        49         3        2.197391e+00
        50         3       -4.801196e-01
        51         3       -1.606476e-01
        52         3       -3.345826e-01
        53         3       -6.211628e-01
        54         3        5.884618e-01
        55         3        5.899375e-01
        56         3        3.920823e-01
        57         3       -1.568481e+00
        58         3        4.329814e-01
        59         3        2.060187e-01
        60         3       -6.105789e-01
        61         3        8.031169e-02
        62         3        8.785277e-01
        63         3        1.746406e-01
        64         3        1.673657e+00
        65         3       -7.374467e-01
        66         3        3.358524e-01
        67         3       -7.705220e-01
        68         3        1.487622e+00
        69         3       -8.703043e-02
        70         3       -3.355059e-02
        71         3        4.400517e-01
        72         3       -5.645461e-01
        73         3        2.351382e-01
        74         3       -1.320480e+00
        75         3        5.913753e-01
        76         3       -1.197516e+00
        77         3        1.654062e+00
        78         3        8.482086e-04
        79         3        2.062328e+00
        80         3        2.394082e+00
        81         3       -2.034438e-01
        82         3        3.362894e-01
        83         3       -7.272685e-01
        84         3        5.440718e-02
        85         3       -4.980753e-02
        86         3        1.301108e+00
        87         3        1.284804e+00
        88         3       -1.664828e-02
        89         3        5.160649e-01
        90         3       -8.885960e-03
        91         3        4.691620e-01
        92         3        4.113965e-01
        93         3        7.375673e-01
        94         3       -1.200065e+00
        95         3       -1.066181e+00
        96         3       -8.578436e-01
        97         3        7.695714e-01
        98         3       -4.921651e-01
        99         3        1.124904e-01
       100         3        7.312084e-01
         1         4       -7.727833e-02
         2         4       -2.132309e+00
         3         4        1.921002e-01
         4         4       -9.457286e-01
         5         4        3.638373e-01
         6         4        8.255220e-01
         7         4        1.253625e+00
         8         4       -2.435145e-01
         9         4       -3.783536e-01
        10         4        1.354586e+00
        11         4        6.283225e-01
        12         4        1.628876e-02
        13         4       -1.004563e+00
        14         4       -8.048119e-01
        15         4       -6.698401e-01
        16         4       -2.739251e-01
        17         4       -1.582620e+00
        18         4        5.432054e-01
        19         4        1.404907e+00
        20         4       -1.264168e+00
        21         4       -1.403168e+00
        22         4       -1.441086e-01
        23         4       -1.148325e+00
        24         4       -2.820890e-02
        25         4        1.602990e+00
        26         4       -8.127625e-02
        27         4       -1.764350e-01
        28         4       -6.459723e-01
        29         4       -6.905944e-01
        30         4        8.229920e-01
        31         4       -2.886175e-01
        32         4        1.132350e+00
        33         4       -3.276094e-01
        34         4       -4.966049e-01
        35         4       -8.672984e-02
        36         4       -1.880497e+00
        37         4       -1.953536e-01
        38         4        1.791119e+00
        39         4        3.648756e-01
        40         4        1.530835e+00
        41         4       -9.188777e-01
        42         4       -3.394644e-03
        43         4       -1.932882e-01
        44         4        5.272054e-01
        45         4        8.971606e-01
        46         4        1.031952e+00
        47         4        1.337109e+00
        48         4       -3.251919e-01
        49         4       -1.772398e+00
        50         4       -9.652329e-01
        51         4        6.203986e-01
        52         4       -9.941842e-01
        53         4       -8.742279e-01
        54         4        4.840902e-01
        55         4       -1.188693e+00
        56         4       -1.025894e+00
        57         4        1.574829e-01
        58         4       -7.661287e-01
        59         4        9.194433e-01
        60         4       -1.078443e+00
        61         4       -4.133050e-01
        62         4       -1.068825e+00
        63         4        7.776536e-01
        64         4        3.064004e-01
        65         4       -2.398073e+00
        66         4        4.086025e-01
        67         4        1.741817e+00
        68         4        7.821366e-01
        69         4        1.246286e+00
        70         4       -8.820069e-01
        71         4       -6.173653e-01
        72         4        4.192778e-01
        73         4       -1.128463e+00
        74         4       -2.196401e+00
        75         4        2.620307e-01
        76         4        1.539810e-01
        77         4        1.022230e+00
        78         4        1.443733e+00
        79         4       -8.939040e-01
        80         4        1.067642e+00
        81         4        1.765690e+00
        82         4        1.480854e+00
        83         4        1.541116e+00
        84         4        5.422599e-01
        85         4       -2.181077e+00
        86         4       -1.044129e+00
        87         4        1.919711e+00
        88         4        2.291992e+00
        89         4       -9.956268e-01
        90         4        1.003443e-01
        91         4       -3.293448e-01
        92         4        3.317329e-01
        93         4        1.336357e+00
        94         4       -9.727935e-03
        95         4       -1.799897e+00
        96         4       -1.703119e-01
        97         4       -1.202465e+00
        98         4        1.302388e+00
        99         4       -1.760408e-01
       100         4       -1.269802e+00
         1         5        2.106963e-01
         2         5       -5.920245e-01
         3         5       -4.432374e-01
         4         5        6.969316e-01
         5         5        1.523195e+00
         6         5       -1.213426e+00
         7         5        3.792142e-01
         8         5        1.449344e-01
         9         5        8.871272e-01
        10         5        1.193595e+00
        11         5        1.682474e+00
        12         5       -5.641572e-01
        13         5       -2.060523e+00
        14         5        1.635055e+00
        15         5        1.124640e+00
        16         5       -1.255281e-01
        17         5       -1.097260e+00
        18         5        8.021612e-01
        19         5       -8.538416e-01
        20         5       -1.550502e+00
        21         5        1.001322e+00
        22         5       -5.621040e-02
        23         5       -1.746834e+00
        24         5        1.056349e+00
        25         5        2.634599e-01
        26         5       -1.763366e-01
        27         5        7.701932e-01
        28         5       -1.321260e+00
        29         5       -2.374269e-01
        30         5       -9.301205e-01
        31         5        6.017897e-01
        32         5       -3.858402e-01
        33         5       -1.766141e-01
        34         5       -7.271132e-01
        35         5       -2.660643e-02
        36         5        5.778931e-01
        37         5       -6.122867e-02
        38         5        1.200158e+00
        39         5        4.804330e-01
        40         5        6.911975e-01
        41         5       -1.956412e-01
        42         5       -4.352300e-01
        43         5       -1.209980e+00
        44         5       -1.885912e+00
        45         5        3.342155e-01
        46         5       -1.014504e+00
        47         5        1.562079e+00
        48         5       -7.240383e-01
        49         5       -1.005712e+00
        50         5        6.559701e-01
        51         5       -8.946087e-01
        52         5       -5.504595e-01
        53         5       -8.067905e-01
        54         5       -1.869500e+00
        55         5       -4.061444e-01
        56         5       -4.718266e-01
        57         5        1.462945e+00
        58         5       -1.903619e+00
        59         5        3.262186e-01
        60         5       -5.813310e-01
        61         5        6.171044e-01
        62         5        1.882945e-01
        63         5       -9.681825e-01
        64         5        2.825544e-01
        65         5        1.851856e+00
        66         5        2.016390e+00
        67         5        1.091304e+00
        68         5        1.144055e+00
        69         5       -1.858750e-01
        70         5       -2.839697e-01
        71         5       -1.408252e-01
        72         5        1.262334e+00
        73         5       -1.264671e+00
        74         5       -7.306139e-01
        75         5        1.355618e-01
        76         5       -4.051824e-01
        77         5       -8.894944e-01
        78         5        9.740842e-01
        79         5        1.093706e+00
        80         5       -9.888059e-01
        81         5       -1.130897e-01
        82         5       -1.508431e-01
        83         5       -6.492443e-01
        84         5        1.124645e-01
        85         5        2.449265e-01
        86         5        1.025237e+00
        87         5       -1.466978e+00
        88         5       -2.071464e-01
        89         5       -5.993910e-02
        90         5        2.579941e-01
        91         5        8.172268e-01
        92         5       -2.462185e+00
        93         5        6.608484e-01
        94         5        1.854630e+00
        95         5       -2.246422e+00
        96         5        1.763806e-01
        97         5       -4.229545e-02
        98         5        3.365445e-01
        99         5        2.490539e-01
       100         5       -8.883364e-02
;

param theta:=
    1       -1.569483e+00
    2        2.692251e-01
    3       -5.146627e-01
    4        2.075150e-02
    5        1.537843e+00
;
param X_true:=
    1        9.118431e-01
    2       -4.230249e-01
    3       -1.815322e-01
    4       -1.674298e+00
    5       -4.074290e+00
    6        3.541410e-01
    7        9.766749e-01
    8       -2.018125e-01
    9        7.683760e-01
   10        5.036737e-01
   11        5.807227e+00
   12        1.222806e+00
   13       -3.557905e+00
   14        4.589056e+00
   15        2.670302e+00
   16        2.117638e+00
   17       -1.974710e+00
   18        3.317018e+00
   19       -2.948528e+00
   20       -3.660364e+00
   21        2.899956e+00
   22       -1.343613e+00
   23       -3.851626e+00
   24        4.499424e+00
   25        2.182539e-01
   26       -2.016172e+00
   27        1.779698e+00
   28       -1.578398e+00
   29        1.283089e+00
   30       -3.499998e+00
   31        1.723541e+00
   32        4.710863e+00
   33       -1.802909e+00
   34        7.465194e-01
   35       -3.744032e+00
   36       -2.027528e+00
   37        3.567255e-01
   38        1.497867e-01
   39       -2.731527e-01
   40        8.295568e-01
   41       -1.355980e+00
   42       -1.306505e+00
   43       -1.586336e+00
   44       -3.662616e+00
   45        1.377749e+00
   46        9.186269e-01
   47       -7.335754e-01
   48        1.699818e+00
   49       -8.876648e-01
   50        1.918909e+00
   51       -2.698768e+00
   52       -1.233316e+00
   53       -9.457495e-01
   54       -2.430988e+00
   55       -2.005392e+00
   56        2.896866e-01
   57        2.990735e+00
   58       -3.113306e+00
   59        6.159281e-01
   60        7.333832e-01
   61        1.034405e+00
   62       -2.871069e+00
   63       -5.989512e+00
   64        1.221152e+00
   65        2.565846e+00
   66        2.056969e+00
   67        2.594325e+00
   68        1.176608e+00
   69       -1.912095e-01
   70        4.965971e-01
   71       -2.154008e+00
   72        2.587469e-01
   73       -1.948883e+00
   74        9.838540e-01
   75        5.079673e+00
   76       -2.272106e+00
   77       -9.487625e-01
   78        3.291516e+00
   79        1.301340e+00
   80       -1.828490e+00
   81        8.200500e-01
   82        8.223721e-01
   83       -1.030601e+00
   84       -1.255117e+00
   85        3.940114e-01
   86        8.501606e-01
   87       -3.532202e+00
   88        4.423698e+00
   89       -1.817855e+00
   90        4.999851e-01
   91        2.432229e+00
   92       -1.683647e+00
   93       -2.746701e+00
   94        5.323410e+00
   95        1.466479e-01
   96        2.113575e+00
   97        2.417108e+00
   98        5.734210e-01
   99       -1.049145e+00
  100       -1.653948e+00
;
param X:=
    1       -5.553201e-01
    2       -2.032450e-01
    3       -1.317601e+00
    4       -1.674298e+00
    5       -4.074290e+00
    6        5.131686e-01
    7       -7.505284e-02
    8       -1.091231e+00
    9       -8.155433e-01
   10        3.530609e-01
   11        1.457324e+00
   12        2.681487e-01
   13       -5.211220e-01
   14       -4.095073e-01
   15        3.157561e-01
   16        2.477386e-01
   17        2.042117e-01
   18       -2.825605e-01
   19       -2.481848e-01
   20       -3.660364e+00
   21       -8.454730e-01
   22       -1.413190e+00
   23        1.022475e-01
   24        3.467589e-01
   25        1.669637e+00
   26       -8.044887e-02
   27       -1.239718e-01
   28        4.489167e-01
   29       -6.380886e-01
   30       -3.499998e+00
   31       -1.765554e+00
   32        4.710863e+00
   33       -1.802909e+00
   34        7.465194e-01
   35        2.325430e-01
   36       -1.637879e+00
   37        1.451995e+00
   38        1.497867e-01
   39       -6.042568e-01
   40       -1.141334e+00
   41       -1.107384e+00
   42       -1.306505e+00
   43       -1.586336e+00
   44       -1.126879e+00
   45       -1.373280e+00
   46       -2.114848e-02
   47        1.256745e+00
   48        1.699818e+00
   49        7.464814e-01
   50       -2.308402e-01
   51        2.833934e-01
   52       -5.256205e-01
   53       -9.457495e-01
   54        8.656601e-01
   55       -2.453405e-01
   56        1.229350e+00
   57        8.228188e-01
   58       -3.113306e+00
   59       -1.256732e+00
   60       -6.084404e-01
   61       -3.779645e-01
   62       -2.871069e+00
   63       -1.620940e+00
   64        3.538950e-01
   65        2.565846e+00
   66       -2.141964e-01
   67       -7.891536e-01
   68        1.083872e-01
   69       -1.912095e-01
   70       -1.785399e+00
   71       -2.430189e-02
   72       -1.799754e-02
   73       -1.133109e+00
   74       -1.004746e-01
   75        2.485419e-01
   76       -1.327847e+00
   77       -2.109261e+00
   78       -1.867112e-02
   79        3.028737e-01
   80       -1.828490e+00
   81        8.200500e-01
   82        1.037963e-01
   83       -6.754689e-02
   84        2.952560e-02
   85        1.488860e+00
   86       -1.576730e+00
   87        7.608333e-02
   88       -1.029893e+00
   89       -1.203042e-01
   90        1.454751e+00
   91        2.432229e+00
   92        1.652790e+00
   93       -5.225077e-01
   94        5.323410e+00
   95        1.466479e-01
   96        2.113575e+00
   97       -1.298198e+00
   98       -3.273414e+00
   99       -1.027313e-01
  100        6.556046e-01
;
param outliervec:=
    1    1
    2    1
    3    1
    4    0
    5    0
    6    1
    7    1
    8    1
    9    1
   10    1
   11    1
   12    1
   13    1
   14    1
   15    1
   16    1
   17    1
   18    1
   19    1
   20    0
   21    1
   22    1
   23    1
   24    1
   25    1
   26    1
   27    1
   28    1
   29    1
   30    0
   31    1
   32    0
   33    0
   34    0
   35    1
   36    1
   37    1
   38    0
   39    1
   40    1
   41    1
   42    0
   43    0
   44    1
   45    1
   46    1
   47    1
   48    0
   49    1
   50    1
   51    1
   52    1
   53    0
   54    1
   55    1
   56    1
   57    1
   58    0
   59    1
   60    1
   61    1
   62    0
   63    1
   64    1
   65    0
   66    1
   67    1
   68    1
   69    0
   70    1
   71    1
   72    1
   73    1
   74    1
   75    1
   76    1
   77    1
   78    1
   79    1
   80    0
   81    0
   82    1
   83    1
   84    1
   85    1
   86    1
   87    1
   88    1
   89    1
   90    1
   91    0
   92    1
   93    1
   94    0
   95    0
   96    0
   97    1
   98    1
   99    1
  100    1
;